SDVRPTW/PR14.vrp
NAME: PR14
COMMENT: Based on Cordeau and Laporte (2001).
TYPE: SDVRPTW
EDGE_WEIGHT_TYPE: EUC_2D
DIMENSION: 193
VEHICLES: 20
NODE_COORD_SECTION
1	-17.863	9.258
2	-1.41	38.47
3	2.948	-20.251
4	-32.855	20.105
5	-10.516	26.233
6	-28.339	59.308
7	-40.582	51.685
8	-31.183	40.466
9	62.915	78.546
10	-21.381	-10.602
11	-22.058	-8.765
12	41.406	-32.452
13	-5.786	14.954
14	-6.671	-36.298
15	-53.668	33.014
16	6.342	81.238
17	17.767	-31.0
18	-49.341	7.861
19	12.341	-23.999
20	-39.502	6.25
21	7.117	14.441
22	19.897	-9.216
23	-24.402	29.694
24	26.147	-12.207
25	31.183	40.344
26	27.069	-17.627
27	28.534	-43.945
28	10.797	-53.784
29	-85.785	29.449
30	-17.273	72.626
31	-35.657	-24.512
32	-26.807	42.059
33	19.434	4.73
34	-47.821	30.426
35	10.547	-31.482
36	-38.544	19.873
37	-27.972	15.851
38	-47.919	73.254
39	-13.141	-96.667
40	9.131	37.061
41	-4.053	-78.888
42	-27.838	32.208
43	-50.439	41.803
44	-17.767	-49.957
45	-16.132	20.935
46	-33.234	36.536
47	42.529	-41.534
48	-19.342	1.129
49	-11.493	12.109
50	-67.175	5.92
51	-71.765	44.427
52	-98.322	39.105
53	85.083	16.327
54	0.757	27.405
55	8.38	-80.713
56	51.917	-71.155
57	-33.997	-20.868
58	0.513	-30.981
59	22.046	-13.397
60	28.656	-22.156
61	24.67	28.107
62	-89.88	39.508
63	-37.097	70.959
64	11.005	-19.946
65	10.309	-65.625
66	-69.287	41.223
67	-45.929	-8.801
68	36.548	1.031
69	-44.592	18.787
70	-28.937	6.421
71	89.532	-53.479
72	23.676	-63.177
73	-37.421	-35.944
74	-47.87	30.127
75	-74.377	76.648
76	-8.374	-13.135
77	34.76	58.545
78	1.813	-4.907
79	31.061	-38.373
80	51.373	14.001
81	-44.47	30.817
82	40.186	-57.477
83	27.374	-14.917
84	20.258	-59.399
85	49.377	25.946
86	-37.646	26.044
87	-42.578	5.573
88	-67.859	-9.814
89	-19.629	61.621
90	-7.611	-27.032
91	-19.092	56.018
92	69.287	-77.911
93	66.772	-51.709
94	-36.047	27.246
95	7.928	-33.582
96	-37.366	30.859
97	-10.748	32.288
98	-3.943	-35.229
99	-71.057	-17.004
100	-12.622	16.211
101	31.042	-33.923
102	-18.195	9.235
103	-21.411	-39.404
104	-37.433	43.152
105	-64.417	43.829
106	-43.756	30.029
107	74.457	6.378
108	-25.787	7.117
109	24.487	70.093
110	60.449	-30.676
111	-50.641	-59.888
112	18.976	-40.289
113	-0.104	8.582
114	3.485	-18.616
115	43.085	-29.81
116	26.807	-26.422
117	-21.234	-1.752
118	-46.417	49.591
119	18.195	50.83
120	-38.171	-14.099
121	-32.214	37.982
122	6.964	83.862
123	-26.19	6.647
124	33.972	-24.603
125	52.417	-18.445
126	-8.313	12.677
127	-25.183	52.484
128	15.729	-26.508
129	-34.674	-8.313
130	-36.7	0.629
131	-33.002	-60.052
132	-25.36	18.481
133	-15.192	29.132
134	2.325	11.346
135	17.615	-2.563
136	48.303	-47.656
137	-26.471	-30.414
138	-54.053	43.549
139	-28.442	24.884
140	1.501	-14.636
141	-80.255	39.062
142	33.313	-9.253
143	23.328	72.046
144	23.895	-12.463
145	-17.218	12.891
146	-21.326	14.978
147	5.548	-24.408
148	16.333	-32.629
149	39.185	-41.602
150	-28.918	-9.113
151	12.152	95.117
152	-40.717	70.312
153	27.655	3.101
154	18.616	-3.699
155	-70.093	32.147
156	-17.279	50.616
157	38.818	-17.389
158	-15.594	-11.432
159	60.101	-38.263
160	-81.72	-27.301
161	98.914	-31.921
162	35.76	-50.83
163	19.409	-20.288
164	-41.351	45.343
165	-15.015	16.29
166	-74.829	-22.644
167	-4.803	-19.629
168	-35.339	42.651
169	18.707	-24.5
170	-23.273	58.026
171	-50.159	56.805
172	-41.974	16.254
173	-77.063	28.723
174	-34.705	-49.426
175	-30.005	50.018
176	-82.294	54.059
177	-49.64	30.554
178	26.434	-4.578
179	91.473	-89.404
180	5.652	92.957
181	-0.049	26.697
182	26.868	-55.914
183	-7.196	-8.972
184	-24.011	7.373
185	-0.72	18.884
186	19.69	57.098
187	24.768	-86.151
188	-55.389	18.152
189	-41.986	43.701
190	72.864	-97.382
191	14.319	-28.888
192	34.21	9.076
193	0.922	-11.09
DEMAND_SECTION
1	0
2	3
3	8
4	6
5	8
6	13
7	20
8	18
9	24
10	20
11	14
12	15
13	1
14	21
15	15
16	12
17	18
18	4
19	25
20	21
21	15
22	17
23	9
24	1
25	25
26	18
27	19
28	22
29	2
30	2
31	23
32	24
33	12
34	21
35	8
36	21
37	2
38	23
39	13
40	5
41	12
42	17
43	11
44	5
45	8
46	16
47	22
48	9
49	2
50	6
51	25
52	9
53	5
54	16
55	18
56	6
57	10
58	24
59	3
60	23
61	22
62	6
63	11
64	17
65	25
66	20
67	25
68	15
69	20
70	6
71	10
72	24
73	14
74	11
75	20
76	13
77	13
78	2
79	22
80	12
81	7
82	7
83	8
84	1
85	4
86	24
87	6
88	24
89	4
90	17
91	19
92	15
93	14
94	6
95	11
96	13
97	22
98	12
99	10
100	5
101	19
102	23
103	6
104	4
105	14
106	12
107	10
108	11
109	11
110	12
111	18
112	23
113	7
114	13
115	9
116	14
117	3
118	25
119	18
120	22
121	15
122	21
123	19
124	3
125	23
126	1
127	10
128	22
129	23
130	9
131	20
132	21
133	13
134	15
135	1
136	20
137	9
138	7
139	8
140	2
141	19
142	8
143	21
144	22
145	1
146	5
147	22
148	8
149	16
150	21
151	9
152	8
153	18
154	12
155	22
156	5
157	10
158	12
159	13
160	14
161	16
162	12
163	19
164	22
165	24
166	10
167	11
168	5
169	8
170	7
171	11
172	7
173	7
174	2
175	13
176	2
177	14
178	9
179	9
180	1
181	24
182	2
183	10
184	4
185	2
186	18
187	3
188	8
189	18
190	7
191	10
192	16
193	22
SERVICE_TIME_SECTION
1	0
2	18
3	18
4	3
5	14
6	4
7	13
8	25
9	10
10	11
11	14
12	11
13	9
14	17
15	19
16	7
17	18
18	20
19	10
20	22
21	9
22	7
23	23
24	2
25	22
26	20
27	15
28	11
29	4
30	2
31	13
32	7
33	21
34	13
35	4
36	12
37	2
38	13
39	7
40	3
41	12
42	20
43	3
44	8
45	15
46	23
47	19
48	18
49	7
50	19
51	7
52	20
53	23
54	1
55	18
56	22
57	7
58	15
59	3
60	19
61	21
62	22
63	22
64	10
65	12
66	18
67	19
68	10
69	14
70	17
71	5
72	23
73	10
74	5
75	15
76	2
77	11
78	6
79	1
80	6
81	2
82	21
83	18
84	8
85	19
86	25
87	10
88	22
89	17
90	16
91	24
92	6
93	22
94	12
95	3
96	13
97	14
98	25
99	1
100	12
101	15
102	15
103	15
104	9
105	17
106	1
107	10
108	6
109	13
110	6
111	21
112	8
113	4
114	9
115	10
116	12
117	25
118	25
119	16
120	23
121	24
122	12
123	4
124	23
125	8
126	3
127	2
128	14
129	12
130	22
131	18
132	20
133	19
134	10
135	2
136	12
137	25
138	1
139	10
140	19
141	16
142	15
143	18
144	13
145	4
146	16
147	10
148	16
149	3
150	3
151	14
152	22
153	18
154	25
155	25
156	16
157	25
158	4
159	11
160	1
161	14
162	1
163	20
164	21
165	2
166	14
167	7
168	16
169	14
170	14
171	19
172	15
173	21
174	10
175	13
176	4
177	16
178	8
179	1
180	2
181	20
182	1
183	4
184	15
185	12
186	10
187	24
188	23
189	22
190	20
191	10
192	13
193	13
TIME_WINDOW_SECTION
1	0	1000
2	238	428
3	276	597
4	294	529
5	80	398
6	96	393
7	92	437
8	226	561
9	268	614
10	145	494
11	174	473
12	250	479
13	150	339
14	81	355
15	109	302
16	60	275
17	185	523
18	125	373
19	144	327
20	278	559
21	91	383
22	229	428
23	94	406
24	269	488
25	79	341
26	98	278
27	246	469
28	120	383
29	239	580
30	255	439
31	202	503
32	73	333
33	273	462
34	79	376
35	211	475
36	292	553
37	265	578
38	255	537
39	184	433
40	231	417
41	108	377
42	269	499
43	251	519
44	260	451
45	222	474
46	77	356
47	196	542
48	256	547
49	195	537
50	182	502
51	190	479
52	207	525
53	161	404
54	125	338
55	172	494
56	185	405
57	103	384
58	179	522
59	275	545
60	165	499
61	212	420
62	258	613
63	151	480
64	184	384
65	130	457
66	115	317
67	61	265
68	100	331
69	203	453
70	111	391
71	131	325
72	166	467
73	192	537
74	151	419
75	187	472
76	250	537
77	224	488
78	152	445
79	154	449
80	114	347
81	156	500
82	123	397
83	64	418
84	248	561
85	238	513
86	89	406
87	159	445
88	173	396
89	167	440
90	112	308
91	121	349
92	176	535
93	173	415
94	158	397
95	72	398
96	264	535
97	258	439
98	294	523
99	222	446
100	172	501
101	253	460
102	256	498
103	134	475
104	168	481
105	202	393
106	70	294
107	230	463
108	283	599
109	121	399
110	273	518
111	274	457
112	98	288
113	80	379
114	77	283
115	101	340
116	73	295
117	139	383
118	174	412
119	197	518
120	73	426
121	133	484
122	116	469
123	211	505
124	154	429
125	270	543
126	99	362
127	194	400
128	240	458
129	131	334
130	205	454
131	249	569
132	117	404
133	171	523
134	205	415
135	272	497
136	253	555
137	180	415
138	184	492
139	263	527
140	298	647
141	243	504
142	281	615
143	246	484
144	77	298
145	100	351
146	292	598
147	276	528
148	192	465
149	283	554
150	75	406
151	65	340
152	78	367
153	225	581
154	290	550
155	129	343
156	222	508
157	289	512
158	106	326
159	148	484
160	158	393
161	60	271
162	276	504
163	296	512
164	148	434
165	75	300
166	72	388
167	266	454
168	78	338
169	290	564
170	293	575
171	292	549
172	118	304
173	77	346
174	142	452
175	119	360
176	275	569
177	227	563
178	178	489
179	205	458
180	277	521
181	247	457
182	86	410
183	144	409
184	266	600
185	64	284
186	134	487
187	61	245
188	140	466
189	140	421
190	82	437
191	163	433
192	183	427
193	239	533
CAPACITY_SECTION
1	100
2	100
3	100
4	100
5	100
6	150
7	150
8	150
9	150
10	150
11	200
12	200
13	200
14	200
15	200
16	250
17	250
18	250
19	250
20	250
VEHICLES_MAX_DURATION_SECTION
1	500
2	500
3	500
4	500
5	500
6	500
7	500
8	500
9	500
10	500
11	500
12	500
13	500
14	500
15	500
16	500
17	500
18	500
19	500
20	500
VEHICLES_ALLOWED_CLIENTS_SECTION
1	2	3	4	5	6	7	8	9	10	11	12	13	14	15	16	17	18	19	20	21	22	23	24	25	26	27	28	29	30	31	32	33	34	35	36	37	38	39	40	41	42	43	44	45	46	47	48	49	50	51	52	53	54	57	59	64	66	70	71	72	74	75	76	79	84	86	87	88	89	90	91	95	96	97	98	100	101	104	105	106	111	112	115	117	118	119	120	121	122	123	124	125	126	127	128	129	130	135	138	140	142	145	149	150	151	157	161	163	171	175	176	177	179	181	183	189	191	193
2	2	3	4	5	6	7	8	9	10	11	12	13	14	15	16	17	18	19	20	21	22	23	24	25	26	27	28	29	30	31	32	33	34	35	36	37	38	39	40	41	42	43	44	45	46	47	48	49	50	51	52	53	54	57	59	64	66	70	71	72	74	75	76	79	84	86	87	88	89	90	91	95	96	97	98	100	101	104	105	106	111	112	115	117	118	119	120	121	122	123	124	125	126	127	128	129	130	135	138	140	142	145	149	150	151	157	161	163	171	175	176	177	179	181	183	189	191	193
3	2	3	4	5	6	7	8	9	10	11	12	13	14	15	16	17	18	19	20	21	22	23	24	25	26	27	28	29	30	31	32	33	34	35	36	37	38	39	40	41	42	43	44	45	46	47	48	49	50	51	52	53	54	57	59	64	66	70	71	72	74	75	76	79	84	86	87	88	89	90	91	95	96	97	98	100	101	104	105	106	111	112	115	117	118	119	120	121	122	123	124	125	126	127	128	129	130	135	138	140	142	145	149	150	151	157	161	163	171	175	176	177	179	181	183	189	191	193
4	2	3	4	5	6	7	8	9	10	11	12	13	14	15	16	17	18	19	20	21	22	23	24	25	26	27	28	29	30	31	32	33	34	35	36	37	38	39	40	41	42	43	44	45	46	47	48	49	50	51	52	53	54	57	59	64	66	70	71	72	74	75	76	79	84	86	87	88	89	90	91	95	96	97	98	100	101	104	105	106	111	112	115	117	118	119	120	121	122	123	124	125	126	127	128	129	130	135	138	140	142	145	149	150	151	157	161	163	171	175	176	177	179	181	183	189	191	193
5	2	3	4	5	6	7	8	9	10	11	12	13	14	15	16	17	18	19	20	21	22	23	24	25	26	27	28	29	30	31	32	33	34	35	36	37	38	39	40	41	42	43	44	45	46	47	48	49	50	51	52	53	54	57	59	64	66	70	71	72	74	75	76	79	84	86	87	88	89	90	91	95	96	97	98	100	101	104	105	106	111	112	115	117	118	119	120	121	122	123	124	125	126	127	128	129	130	135	138	140	142	145	149	150	151	157	161	163	171	175	176	177	179	181	183	189	191	193
6	2	3	4	5	6	7	8	9	10	11	12	13	14	15	16	17	18	19	20	21	22	23	24	25	26	27	28	29	30	31	32	33	34	35	36	37	38	39	40	41	42	43	44	45	46	47	48	49	55	57	63	64	66	67	68	71	72	74	75	76	77	78	80	84	85	86	88	89	90	91	93	94	95	97	101	103	111	112	114	117	120	121	124	125	127	130	131	134	136	137	138	139	142	144	146	148	153	160	164	166	167	169	170	180	188	192
7	2	3	4	5	6	7	8	9	10	11	12	13	14	15	16	17	18	19	20	21	22	23	24	25	26	27	28	29	30	31	32	33	34	35	36	37	38	39	40	41	42	43	44	45	46	47	48	49	55	57	63	64	66	67	68	71	72	74	75	76	77	78	80	84	85	86	88	89	90	91	93	94	95	97	101	103	111	112	114	117	120	121	124	125	127	130	131	134	136	137	138	139	142	144	146	148	153	160	164	166	167	169	170	180	188	192
8	2	3	4	5	6	7	8	9	10	11	12	13	14	15	16	17	18	19	20	21	22	23	24	25	26	27	28	29	30	31	32	33	34	35	36	37	38	39	40	41	42	43	44	45	46	47	48	49	55	57	63	64	66	67	68	71	72	74	75	76	77	78	80	84	85	86	88	89	90	91	93	94	95	97	101	103	111	112	114	117	120	121	124	125	127	130	131	134	136	137	138	139	142	144	146	148	153	160	164	166	167	169	170	180	188	192
9	2	3	4	5	6	7	8	9	10	11	12	13	14	15	16	17	18	19	20	21	22	23	24	25	26	27	28	29	30	31	32	33	34	35	36	37	38	39	40	41	42	43	44	45	46	47	48	49	55	57	63	64	66	67	68	71	72	74	75	76	77	78	80	84	85	86	88	89	90	91	93	94	95	97	101	103	111	112	114	117	120	121	124	125	127	130	131	134	136	137	138	139	142	144	146	148	153	160	164	166	167	169	170	180	188	192
10	2	3	4	5	6	7	8	9	10	11	12	13	14	15	16	17	18	19	20	21	22	23	24	25	26	27	28	29	30	31	32	33	34	35	36	37	38	39	40	41	42	43	44	45	46	47	48	49	55	57	63	64	66	67	68	71	72	74	75	76	77	78	80	84	85	86	88	89	90	91	93	94	95	97	101	103	111	112	114	117	120	121	124	125	127	130	131	134	136	137	138	139	142	144	146	148	153	160	164	166	167	169	170	180	188	192
11	2	3	4	5	6	7	8	9	10	11	12	13	14	15	16	17	18	19	20	21	22	23	24	25	26	27	28	29	30	31	32	33	34	35	36	37	38	39	40	41	42	43	44	45	46	47	48	49	55	56	58	60	61	62	63	65	67	68	69	73	77	78	80	81	82	83	85	92	93	94	99	102	103	107	108	109	110	113	114	116	131	132	133	134	136	137	139	141	143	144	147	152	154	159	162	168	178	184	185
12	2	3	4	5	6	7	8	9	10	11	12	13	14	15	16	17	18	19	20	21	22	23	24	25	26	27	28	29	30	31	32	33	34	35	36	37	38	39	40	41	42	43	44	45	46	47	48	49	55	56	58	60	61	62	63	65	67	68	69	73	77	78	80	81	82	83	85	92	93	94	99	102	103	107	108	109	110	113	114	116	131	132	133	134	136	137	139	141	143	144	147	152	154	159	162	168	178	184	185
13	2	3	4	5	6	7	8	9	10	11	12	13	14	15	16	17	18	19	20	21	22	23	24	25	26	27	28	29	30	31	32	33	34	35	36	37	38	39	40	41	42	43	44	45	46	47	48	49	55	56	58	60	61	62	63	65	67	68	69	73	77	78	80	81	82	83	85	92	93	94	99	102	103	107	108	109	110	113	114	116	131	132	133	134	136	137	139	141	143	144	147	152	154	159	162	168	178	184	185
14	2	3	4	5	6	7	8	9	10	11	12	13	14	15	16	17	18	19	20	21	22	23	24	25	26	27	28	29	30	31	32	33	34	35	36	37	38	39	40	41	42	43	44	45	46	47	48	49	55	56	58	60	61	62	63	65	67	68	69	73	77	78	80	81	82	83	85	92	93	94	99	102	103	107	108	109	110	113	114	116	131	132	133	134	136	137	139	141	143	144	147	152	154	159	162	168	178	184	185
15	2	3	4	5	6	7	8	9	10	11	12	13	14	15	16	17	18	19	20	21	22	23	24	25	26	27	28	29	30	31	32	33	34	35	36	37	38	39	40	41	42	43	44	45	46	47	48	49	55	56	58	60	61	62	63	65	67	68	69	73	77	78	80	81	82	83	85	92	93	94	99	102	103	107	108	109	110	113	114	116	131	132	133	134	136	137	139	141	143	144	147	152	154	159	162	168	178	184	185
16	2	3	4	5	6	7	8	9	10	11	12	13	14	15	16	17	18	19	20	21	22	23	24	25	26	27	28	29	30	31	32	33	34	35	36	37	38	39	40	41	42	43	44	45	46	47	48	49	50	51	52	53	54	56	58	59	60	61	62	65	69	70	73	79	81	82	83	87	92	96	98	99	100	102	104	105	106	107	108	109	110	113	115	116	118	119	122	123	126	128	129	132	133	135	140	141	143	145	155	156	158	165	172	173	174	182	186	187	190
17	2	3	4	5	6	7	8	9	10	11	12	13	14	15	16	17	18	19	20	21	22	23	24	25	26	27	28	29	30	31	32	33	34	35	36	37	38	39	40	41	42	43	44	45	46	47	48	49	50	51	52	53	54	56	58	59	60	61	62	65	69	70	73	79	81	82	83	87	92	96	98	99	100	102	104	105	106	107	108	109	110	113	115	116	118	119	122	123	126	128	129	132	133	135	140	141	143	145	155	156	158	165	172	173	174	182	186	187	190
18	2	3	4	5	6	7	8	9	10	11	12	13	14	15	16	17	18	19	20	21	22	23	24	25	26	27	28	29	30	31	32	33	34	35	36	37	38	39	40	41	42	43	44	45	46	47	48	49	50	51	52	53	54	56	58	59	60	61	62	65	69	70	73	79	81	82	83	87	92	96	98	99	100	102	104	105	106	107	108	109	110	113	115	116	118	119	122	123	126	128	129	132	133	135	140	141	143	145	155	156	158	165	172	173	174	182	186	187	190
19	2	3	4	5	6	7	8	9	10	11	12	13	14	15	16	17	18	19	20	21	22	23	24	25	26	27	28	29	30	31	32	33	34	35	36	37	38	39	40	41	42	43	44	45	46	47	48	49	50	51	52	53	54	56	58	59	60	61	62	65	69	70	73	79	81	82	83	87	92	96	98	99	100	102	104	105	106	107	108	109	110	113	115	116	118	119	122	123	126	128	129	132	133	135	140	141	143	145	155	156	158	165	172	173	174	182	186	187	190
20	2	3	4	5	6	7	8	9	10	11	12	13	14	15	16	17	18	19	20	21	22	23	24	25	26	27	28	29	30	31	32	33	34	35	36	37	38	39	40	41	42	43	44	45	46	47	48	49	50	51	52	53	54	56	58	59	60	61	62	65	69	70	73	79	81	82	83	87	92	96	98	99	100	102	104	105	106	107	108	109	110	113	115	116	118	119	122	123	126	128	129	132	133	135	140	141	143	145	155	156	158	165	172	173	174	182	186	187	190
EOF
