SDVRPTW/PR14.sol
Route #1: 174 150 15 1 180 96 4 44
Route #2: 182 190 100 11 114 124 156 58 134
Route #3: 176 65 175 74 170 188 120
Route #4: 116 149 128 129 69 122
Route #5: 52 160 70 178 148 123 162 192
Route #6: 85 93 73 137 163 126 90 169 88 29 179 8 76
Route #7: 77 63 147 111 83 71 54 40 38 130 102
Route #8: 66 119 56 136 110 159 165 87 187 36 145
Route #9: 75 166 89 94 34 16 168 141 191 152
Route #10:
Route #11: 113 18 115 59 25 82 143 23 21 153 32 133 112 48
Route #12: 22 31 5 62 151 37 6 167 45 7 41 138 183
Route #13: 184 20 177 67 79 84 106 109 158 92 135 46 161 146 2
Route #14:
Route #15:
Route #16: 27 64 186 189 91 55 81 181 26 78 127 139
Route #17: 105 33 14 154 172 28 51 61 140 50 104 42 117 103 95 80 35 3
Route #18: 144 164 99 125 12 53 39 60 24 118 185 108 142 121 155 132
Route #19: 131 171 68 49 98 17 86 19 107 101
Route #20: 157 57 97 13 43 173 72 30 9 10 47
Cost: 3649721
